NAME          
ROWS
 N  OBJ
 L  c3
 L  c4
 L  c5
 L  c6
 L  c7
 G  c1
 G  c2
COLUMNS
    ss[1]     c1        1
    ss[1]     OBJ       1000
    ss[2]     c2        1
    ss[2]     OBJ       1000
    s[1]      c3        1
    s[1]      OBJ       -1000
    s[2]      c4        1
    s[2]      OBJ       -1000
    s[3]      c5        1
    s[3]      OBJ       -1000
    s[4]      c6        1
    s[4]      OBJ       -1000
    s[5]      c7        1
    s[5]      OBJ       -1000
    MARKER    'MARKER'                 'INTORG'
    x[1]      c3        196
    x[1]      c4        916
    x[1]      c5        512
    x[1]      c6        459
    x[1]      c7        260
    x[1]      c1        556
    x[1]      c2        413
    x[1]      OBJ       25
    x[2]      c3        780
    x[2]      c4        485
    x[2]      c5        182
    x[2]      c6        284
    x[2]      c7        64
    x[2]      c1        125
    x[2]      c2        794
    x[2]      OBJ       -345
    x[3]      c3        104
    x[3]      c4        585
    x[3]      c5        713
    x[3]      c6        625
    x[3]      c7        263
    x[3]      c1        736
    x[3]      c2        494
    x[3]      OBJ       -323
    x[4]      c3        74
    x[4]      c4        316
    x[4]      c5        94
    x[4]      c6        253
    x[4]      c7        997
    x[4]      c1        557
    x[4]      c2        821
    x[4]      OBJ       203
    x[5]      c3        440
    x[5]      c4        549
    x[5]      c5        203
    x[5]      c6        88
    x[5]      c7        613
    x[5]      c1        301
    x[5]      c2        348
    x[5]      OBJ       -62
    x[6]      c3        177
    x[6]      c4        903
    x[6]      c5        317
    x[6]      c6        737
    x[6]      c7        304
    x[6]      c1        6
    x[6]      c2        961
    x[6]      OBJ       19
    x[7]      c3        34
    x[7]      c4        579
    x[7]      c5        389
    x[7]      c6        933
    x[7]      c7        157
    x[7]      c1        111
    x[7]      c2        63
    x[7]      OBJ       -334
    x[8]      c3        694
    x[8]      c4        478
    x[8]      c5        929
    x[8]      c6        57
    x[8]      c7        878
    x[8]      c1        16
    x[8]      c2        962
    x[8]      OBJ       -509
    x[9]      c3        708
    x[9]      c4        148
    x[9]      c5        748
    x[9]      c6        658
    x[9]      c7        955
    x[9]      c1        704
    x[9]      c2        799
    x[9]      OBJ       -161
    x[10]     c3        499
    x[10]     c4        60
    x[10]     c5        451
    x[10]     c6        949
    x[10]     c7        245
    x[10]     c1        952
    x[10]     c2        242
    x[10]     OBJ       -115
    x[11]     c3        912
    x[11]     c4        412
    x[11]     c5        860
    x[11]     c6        114
    x[11]     c7        626
    x[11]     c1        408
    x[11]     c2        352
    x[11]     OBJ       -486
    x[12]     c3        309
    x[12]     c4        447
    x[12]     c5        513
    x[12]     c6        131
    x[12]     c7        418
    x[12]     c1        492
    x[12]     c2        337
    x[12]     OBJ       -355
    x[13]     c3        366
    x[13]     c4        448
    x[13]     c5        382
    x[13]     c6        412
    x[13]     c7        660
    x[13]     c1        163
    x[13]     c2        111
    x[13]     OBJ       -663
    x[14]     c3        137
    x[14]     c4        359
    x[14]     c5        350
    x[14]     c6        785
    x[14]     c7        42
    x[14]     c1        938
    x[14]     c2        559
    x[14]     OBJ       208
    x[15]     c3        149
    x[15]     c4        573
    x[15]     c5        904
    x[15]     c6        888
    x[15]     c7        719
    x[15]     c1        315
    x[15]     c2        889
    x[15]     OBJ       -451
    x[16]     c3        190
    x[16]     c4        391
    x[16]     c5        936
    x[16]     c6        702
    x[16]     c7        891
    x[16]     c1        949
    x[16]     c2        595
    x[16]     OBJ       -162
    x[17]     c3        636
    x[17]     c4        513
    x[17]     c5        522
    x[17]     c6        816
    x[17]     c7        852
    x[17]     c1        670
    x[17]     c2        914
    x[17]     OBJ       8
    x[18]     c3        188
    x[18]     c4        563
    x[18]     c5        459
    x[18]     c6        725
    x[18]     c7        595
    x[18]     c1        1000
    x[18]     c2        576
    x[18]     OBJ       -153
    x[19]     c3        647
    x[19]     c4        630
    x[19]     c5        773
    x[19]     c6        597
    x[19]     c7        715
    x[19]     c1        457
    x[19]     c2        312
    x[19]     OBJ       -626
    x[20]     c3        400
    x[20]     c4        596
    x[20]     c5        29
    x[20]     c6        738
    x[20]     c7        539
    x[20]     c1        816
    x[20]     c2        323
    x[20]     OBJ       -116
    x[21]     c3        331
    x[21]     c4        526
    x[21]     c5        226
    x[21]     c6        794
    x[21]     c7        488
    x[21]     c1        357
    x[21]     c2        153
    x[21]     OBJ       -674
    x[22]     c3        676
    x[22]     c4        484
    x[22]     c5        889
    x[22]     c6        763
    x[22]     c7        883
    x[22]     c1        495
    x[22]     c2        888
    x[22]     OBJ       -486
    x[23]     c3        292
    x[23]     c4        570
    x[23]     c5        210
    x[23]     c6        407
    x[23]     c7        161
    x[23]     c1        916
    x[23]     c2        287
    x[23]     OBJ       29
    x[24]     c3        952
    x[24]     c4        782
    x[24]     c5        487
    x[24]     c6        767
    x[24]     c7        475
    x[24]     c1        852
    x[24]     c2        627
    x[24]     OBJ       -404
    x[25]     c3        761
    x[25]     c4        96
    x[25]     c5        148
    x[25]     c6        485
    x[25]     c7        795
    x[25]     c1        614
    x[25]     c2        888
    x[25]     OBJ       55
    x[26]     c3        957
    x[26]     c4        328
    x[26]     c5        481
    x[26]     c6        254
    x[26]     c7        680
    x[26]     c1        161
    x[26]     c2        634
    x[26]     OBJ       -350
    x[27]     c3        151
    x[27]     c4        781
    x[27]     c5        952
    x[27]     c6        694
    x[27]     c7        300
    x[27]     c1        60
    x[27]     c2        424
    x[27]     OBJ       -403
    x[28]     c3        34
    x[28]     c4        241
    x[28]     c5        588
    x[28]     c6        795
    x[28]     c7        489
    x[28]     c1        382
    x[28]     c2        365
    x[28]     OBJ       -164
    x[29]     c3        419
    x[29]     c4        619
    x[29]     c5        916
    x[29]     c6        649
    x[29]     c7        868
    x[29]     c1        373
    x[29]     c2        374
    x[29]     OBJ       -339
    x[30]     c3        169
    x[30]     c4        908
    x[30]     c5        146
    x[30]     c6        162
    x[30]     c7        304
    x[30]     c1        570
    x[30]     c2        85
    x[30]     OBJ       -234
    x[31]     c3        359
    x[31]     c4        47
    x[31]     c5        119
    x[31]     c6        811
    x[31]     c7        82
    x[31]     c1        182
    x[31]     c2        650
    x[31]     OBJ       -330
    x[32]     c3        873
    x[32]     c4        89
    x[32]     c5        608
    x[32]     c6        956
    x[32]     c7        698
    x[32]     c1        934
    x[32]     c2        265
    x[32]     OBJ       -356
    x[33]     c3        845
    x[33]     c4        511
    x[33]     c5        569
    x[33]     c6        955
    x[33]     c7        884
    x[33]     c1        129
    x[33]     c2        711
    x[33]     OBJ       -389
    x[34]     c3        316
    x[34]     c4        662
    x[34]     c5        758
    x[34]     c6        792
    x[34]     c7        977
    x[34]     c1        542
    x[34]     c2        204
    x[34]     OBJ       -586
    x[35]     c3        363
    x[35]     c4        981
    x[35]     c5        61
    x[35]     c6        299
    x[35]     c7        209
    x[35]     c1        767
    x[35]     c2        816
    x[35]     OBJ       337
    x[36]     c3        47
    x[36]     c4        552
    x[36]     c5        222
    x[36]     c6        484
    x[36]     c7        701
    x[36]     c1        964
    x[36]     c2        595
    x[36]     OBJ       24
    x[37]     c3        317
    x[37]     c4        602
    x[37]     c5        531
    x[37]     c6        994
    x[37]     c7        120
    x[37]     c1        896
    x[37]     c2        111
    x[37]     OBJ       1
    x[38]     c3        242
    x[38]     c4        846
    x[38]     c5        143
    x[38]     c6        688
    x[38]     c7        444
    x[38]     c1        350
    x[38]     c2        707
    x[38]     OBJ       -306
    x[39]     c3        487
    x[39]     c4        123
    x[39]     c5        166
    x[39]     c6        417
    x[39]     c7        333
    x[39]     c1        178
    x[39]     c2        774
    x[39]     OBJ       -291
    x[40]     c3        643
    x[40]     c4        47
    x[40]     c5        664
    x[40]     c6        487
    x[40]     c7        412
    x[40]     c1        557
    x[40]     c2        138
    x[40]     OBJ       -504
    x[41]     c3        966
    x[41]     c4        723
    x[41]     c5        361
    x[41]     c6        763
    x[41]     c7        307
    x[41]     c1        975
    x[41]     c2        687
    x[41]     OBJ       -270
    x[42]     c3        913
    x[42]     c4        347
    x[42]     c5        455
    x[42]     c6        300
    x[42]     c7        800
    x[42]     c1        70
    x[42]     c2        131
    x[42]     OBJ       -859
    x[43]     c3        813
    x[43]     c4        196
    x[43]     c5        19
    x[43]     c6        927
    x[43]     c7        773
    x[43]     c1        226
    x[43]     c2        279
    x[43]     OBJ       -330
    x[44]     c3        486
    x[44]     c4        61
    x[44]     c5        166
    x[44]     c6        102
    x[44]     c7        472
    x[44]     c1        356
    x[44]     c2        775
    x[44]     OBJ       240
    x[45]     c3        677
    x[45]     c4        183
    x[45]     c5        228
    x[45]     c6        356
    x[45]     c7        512
    x[45]     c1        404
    x[45]     c2        191
    x[45]     OBJ       -242
    x[46]     c3        502
    x[46]     c4        215
    x[46]     c5        193
    x[46]     c6        742
    x[46]     c7        797
    x[46]     c1        79
    x[46]     c2        217
    x[46]     OBJ       -491
    x[47]     c3        260
    x[47]     c4        574
    x[47]     c5        554
    x[47]     c6        987
    x[47]     c7        648
    x[47]     c1        833
    x[47]     c2        181
    x[47]     OBJ       -413
    x[48]     c3        36
    x[48]     c4        122
    x[48]     c5        80
    x[48]     c6        441
    x[48]     c7        948
    x[48]     c1        616
    x[48]     c2        750
    x[48]     OBJ       274
    x[49]     c3        830
    x[49]     c4        549
    x[49]     c5        723
    x[49]     c6        848
    x[49]     c7        771
    x[49]     c1        575
    x[49]     c2        890
    x[49]     OBJ       -274
    x[50]     c3        249
    x[50]     c4        346
    x[50]     c5        123
    x[50]     c6        66
    x[50]     c7        671
    x[50]     c1        987
    x[50]     c2        776
    x[50]     OBJ       146
    x[51]     c3        618
    x[51]     c4        966
    x[51]     c5        273
    x[51]     c6        106
    x[51]     c7        251
    x[51]     c1        340
    x[51]     c2        484
    x[51]     OBJ       -348
    x[52]     c3        194
    x[52]     c4        626
    x[52]     c5        340
    x[52]     c6        150
    x[52]     c7        510
    x[52]     c1        794
    x[52]     c2        655
    x[52]     OBJ       148
    x[53]     c3        76
    x[53]     c4        32
    x[53]     c5        653
    x[53]     c6        504
    x[53]     c7        725
    x[53]     c1        321
    x[53]     c2        662
    x[53]     OBJ       37
    x[54]     c3        16
    x[54]     c4        480
    x[54]     c5        672
    x[54]     c6        17
    x[54]     c7        807
    x[54]     c1        337
    x[54]     c2        662
    x[54]     OBJ       -196
    x[55]     c3        273
    x[55]     c4        486
    x[55]     c5        250
    x[55]     c6        149
    x[55]     c7        863
    x[55]     c1        580
    x[55]     c2        995
    x[55]     OBJ       327
    x[56]     c3        91
    x[56]     c4        378
    x[56]     c5        438
    x[56]     c6        748
    x[56]     c7        508
    x[56]     c1        920
    x[56]     c2        248
    x[56]     OBJ       -74
    x[57]     c3        379
    x[57]     c4        975
    x[57]     c5        521
    x[57]     c6        100
    x[57]     c7        217
    x[57]     c1        425
    x[57]     c2        718
    x[57]     OBJ       -256
    x[58]     c3        923
    x[58]     c4        345
    x[58]     c5        848
    x[58]     c6        674
    x[58]     c7        992
    x[58]     c1        170
    x[58]     c2        321
    x[58]     OBJ       -733
    x[59]     c3        922
    x[59]     c4        416
    x[59]     c5        236
    x[59]     c6        829
    x[59]     c7        924
    x[59]     c1        955
    x[59]     c2        533
    x[59]     OBJ       11
    x[60]     c3        755
    x[60]     c4        588
    x[60]     c5        435
    x[60]     c6        942
    x[60]     c7        221
    x[60]     c1        581
    x[60]     c2        391
    x[60]     OBJ       -257
    x[61]     c3        109
    x[61]     c4        981
    x[61]     c5        5
    x[61]     c6        251
    x[61]     c7        130
    x[61]     c1        739
    x[61]     c2        81
    x[61]     OBJ       -373
    x[62]     c3        612
    x[62]     c4        339
    x[62]     c5        534
    x[62]     c6        169
    x[62]     c7        902
    x[62]     c1        622
    x[62]     c2        253
    x[62]     OBJ       -214
    x[63]     c3        765
    x[63]     c4        241
    x[63]     c5        663
    x[63]     c6        727
    x[63]     c7        816
    x[63]     c1        473
    x[63]     c2        879
    x[63]     OBJ       -396
    x[64]     c3        984
    x[64]     c4        715
    x[64]     c5        236
    x[64]     c6        416
    x[64]     c7        514
    x[64]     c1        789
    x[64]     c2        540
    x[64]     OBJ       -276
    x[65]     c3        214
    x[65]     c4        777
    x[65]     c5        544
    x[65]     c6        248
    x[65]     c7        216
    x[65]     c1        946
    x[65]     c2        959
    x[65]     OBJ       257
    x[66]     c3        317
    x[66]     c4        962
    x[66]     c5        68
    x[66]     c6        133
    x[66]     c7        295
    x[66]     c1        499
    x[66]     c2        118
    x[66]     OBJ       -431
    x[67]     c3        563
    x[67]     c4        790
    x[67]     c5        534
    x[67]     c6        224
    x[67]     c7        261
    x[67]     c1        666
    x[67]     c2        989
    x[67]     OBJ       30
    x[68]     c3        723
    x[68]     c4        541
    x[68]     c5        971
    x[68]     c6        659
    x[68]     c7        216
    x[68]     c1        546
    x[68]     c2        781
    x[68]     OBJ       -238
    x[69]     c3        769
    x[69]     c4        598
    x[69]     c5        944
    x[69]     c6        305
    x[69]     c7        134
    x[69]     c1        630
    x[69]     c2        678
    x[69]     OBJ       46
    x[70]     c3        30
    x[70]     c4        619
    x[70]     c5        657
    x[70]     c6        298
    x[70]     c7        134
    x[70]     c1        997
    x[70]     c2        787
    x[70]     OBJ       287
    x[71]     c3        298
    x[71]     c4        216
    x[71]     c5        626
    x[71]     c6        439
    x[71]     c7        606
    x[71]     c1        462
    x[71]     c2        424
    x[71]     OBJ       -490
    x[72]     c3        547
    x[72]     c4        772
    x[72]     c5        862
    x[72]     c6        953
    x[72]     c7        495
    x[72]     c1        750
    x[72]     c2        721
    x[72]     OBJ       22
    x[73]     c3        550
    x[73]     c4        416
    x[73]     c5        434
    x[73]     c6        366
    x[73]     c7        797
    x[73]     c1        841
    x[73]     c2        623
    x[73]     OBJ       47
    x[74]     c3        325
    x[74]     c4        940
    x[74]     c5        982
    x[74]     c6        651
    x[74]     c7        716
    x[74]     c1        795
    x[74]     c2        833
    x[74]     OBJ       -303
    x[75]     c3        854
    x[75]     c4        879
    x[75]     c5        315
    x[75]     c6        350
    x[75]     c7        352
    x[75]     c1        2
    x[75]     c2        986
    x[75]     OBJ       -464
    x[76]     c3        468
    x[76]     c4        923
    x[76]     c5        494
    x[76]     c6        767
    x[76]     c7        336
    x[76]     c1        522
    x[76]     c2        141
    x[76]     OBJ       -510
    x[77]     c3        114
    x[77]     c4        27
    x[77]     c5        6
    x[77]     c6        102
    x[77]     c7        430
    x[77]     c1        778
    x[77]     c2        66
    x[77]     OBJ       -50
    x[78]     c3        941
    x[78]     c4        763
    x[78]     c5        172
    x[78]     c6        733
    x[78]     c7        21
    x[78]     c1        42
    x[78]     c2        983
    x[78]     OBJ       -507
    x[79]     c3        503
    x[79]     c4        712
    x[79]     c5        342
    x[79]     c6        102
    x[79]     c7        912
    x[79]     c1        714
    x[79]     c2        449
    x[79]     OBJ       -328
    x[80]     c3        945
    x[80]     c4        48
    x[80]     c5        326
    x[80]     c6        5
    x[80]     c7        17
    x[80]     c1        645
    x[80]     c2        654
    x[80]     OBJ       368
    x[81]     c3        141
    x[81]     c4        692
    x[81]     c5        446
    x[81]     c6        890
    x[81]     c7        114
    x[81]     c1        855
    x[81]     c2        458
    x[81]     OBJ       -119
    x[82]     c3        10
    x[82]     c4        857
    x[82]     c5        333
    x[82]     c6        876
    x[82]     c7        755
    x[82]     c1        396
    x[82]     c2        675
    x[82]     OBJ       -379
    x[83]     c3        663
    x[83]     c4        750
    x[83]     c5        540
    x[83]     c6        133
    x[83]     c7        952
    x[83]     c1        768
    x[83]     c2        515
    x[83]     OBJ       39
    x[84]     c3        47
    x[84]     c4        966
    x[84]     c5        373
    x[84]     c6        951
    x[84]     c7        423
    x[84]     c1        392
    x[84]     c2        718
    x[84]     OBJ       -361
    x[85]     c3        313
    x[85]     c4        676
    x[85]     c5        546
    x[85]     c6        773
    x[85]     c7        610
    x[85]     c1        141
    x[85]     c2        486
    x[85]     OBJ       -507
    x[86]     c3        362
    x[86]     c4        300
    x[86]     c5        380
    x[86]     c6        174
    x[86]     c7        990
    x[86]     c1        544
    x[86]     c2        881
    x[86]     OBJ       -51
    x[87]     c3        799
    x[87]     c4        786
    x[87]     c5        8
    x[87]     c6        65
    x[87]     c7        217
    x[87]     c1        847
    x[87]     c2        726
    x[87]     OBJ       29
    x[88]     c3        477
    x[88]     c4        7
    x[88]     c5        114
    x[88]     c6        824
    x[88]     c7        144
    x[88]     c1        263
    x[88]     c2        386
    x[88]     OBJ       -177
    x[89]     c3        807
    x[89]     c4        447
    x[89]     c5        949
    x[89]     c6        834
    x[89]     c7        389
    x[89]     c1        325
    x[89]     c2        796
    x[89]     OBJ       -588
    x[90]     c3        603
    x[90]     c4        431
    x[90]     c5        318
    x[90]     c6        713
    x[90]     c7        862
    x[90]     c1        227
    x[90]     c2        229
    x[90]     OBJ       -544
    x[91]     c3        166
    x[91]     c4        986
    x[91]     c5        638
    x[91]     c6        281
    x[91]     c7        816
    x[91]     c1        765
    x[91]     c2        398
    x[91]     OBJ       -480
    x[92]     c3        468
    x[92]     c4        563
    x[92]     c5        874
    x[92]     c6        803
    x[92]     c7        230
    x[92]     c1        128
    x[92]     c2        335
    x[92]     OBJ       -612
    x[93]     c3        266
    x[93]     c4        489
    x[93]     c5        197
    x[93]     c6        324
    x[93]     c7        365
    x[93]     c1        10
    x[93]     c2        624
    x[93]     OBJ       -315
    x[94]     c3        188
    x[94]     c4        682
    x[94]     c5        125
    x[94]     c6        429
    x[94]     c7        565
    x[94]     c1        973
    x[94]     c2        283
    x[94]     OBJ       25
    x[95]     c3        642
    x[95]     c4        897
    x[95]     c5        204
    x[95]     c6        687
    x[95]     c7        168
    x[95]     c1        162
    x[95]     c2        182
    x[95]     OBJ       -753
    x[96]     c3        354
    x[96]     c4        76
    x[96]     c5        955
    x[96]     c6        714
    x[96]     c7        106
    x[96]     c1        743
    x[96]     c2        589
    x[96]     OBJ       -218
    x[97]     c3        176
    x[97]     c4        571
    x[97]     c5        301
    x[97]     c6        91
    x[97]     c7        384
    x[97]     c1        208
    x[97]     c2        153
    x[97]     OBJ       -349
    x[98]     c3        340
    x[98]     c4        969
    x[98]     c5        632
    x[98]     c6        66
    x[98]     c7        232
    x[98]     c1        223
    x[98]     c2        945
    x[98]     OBJ       39
    x[99]     c3        738
    x[99]     c4        828
    x[99]     c5        298
    x[99]     c6        720
    x[99]     c7        995
    x[99]     c1        981
    x[99]     c2        272
    x[99]     OBJ       -249
    x[100]    c3        927
    x[100]    c4        493
    x[100]    c5        229
    x[100]    c6        803
    x[100]    c7        766
    x[100]    c1        143
    x[100]    c2        849
    x[100]    OBJ       -551
RHS
    rhs       c3        22986
    rhs       c4        26540
    rhs       c5        22447
    rhs       c6        26202
    rhs       c7        26098
    rhs       c1        2632
    rhs       c2        2677
RANGES
BOUNDS
 LO bounds    ss[1]     0
 PL bounds    ss[1]
 LO bounds    ss[2]     0
 PL bounds    ss[2]
 MI bounds    s[1]
 UP bounds    s[1]      0
 MI bounds    s[2]
 UP bounds    s[2]      0
 MI bounds    s[3]
 UP bounds    s[3]      0
 MI bounds    s[4]
 UP bounds    s[4]      0
 MI bounds    s[5]
 UP bounds    s[5]      0
 BV bounds    x[1]
 BV bounds    x[2]
 BV bounds    x[3]
 BV bounds    x[4]
 BV bounds    x[5]
 BV bounds    x[6]
 BV bounds    x[7]
 BV bounds    x[8]
 BV bounds    x[9]
 BV bounds    x[10]
 BV bounds    x[11]
 BV bounds    x[12]
 BV bounds    x[13]
 BV bounds    x[14]
 BV bounds    x[15]
 BV bounds    x[16]
 BV bounds    x[17]
 BV bounds    x[18]
 BV bounds    x[19]
 BV bounds    x[20]
 BV bounds    x[21]
 BV bounds    x[22]
 BV bounds    x[23]
 BV bounds    x[24]
 BV bounds    x[25]
 BV bounds    x[26]
 BV bounds    x[27]
 BV bounds    x[28]
 BV bounds    x[29]
 BV bounds    x[30]
 BV bounds    x[31]
 BV bounds    x[32]
 BV bounds    x[33]
 BV bounds    x[34]
 BV bounds    x[35]
 BV bounds    x[36]
 BV bounds    x[37]
 BV bounds    x[38]
 BV bounds    x[39]
 BV bounds    x[40]
 BV bounds    x[41]
 BV bounds    x[42]
 BV bounds    x[43]
 BV bounds    x[44]
 BV bounds    x[45]
 BV bounds    x[46]
 BV bounds    x[47]
 BV bounds    x[48]
 BV bounds    x[49]
 BV bounds    x[50]
 BV bounds    x[51]
 BV bounds    x[52]
 BV bounds    x[53]
 BV bounds    x[54]
 BV bounds    x[55]
 BV bounds    x[56]
 BV bounds    x[57]
 BV bounds    x[58]
 BV bounds    x[59]
 BV bounds    x[60]
 BV bounds    x[61]
 BV bounds    x[62]
 BV bounds    x[63]
 BV bounds    x[64]
 BV bounds    x[65]
 BV bounds    x[66]
 BV bounds    x[67]
 BV bounds    x[68]
 BV bounds    x[69]
 BV bounds    x[70]
 BV bounds    x[71]
 BV bounds    x[72]
 BV bounds    x[73]
 BV bounds    x[74]
 BV bounds    x[75]
 BV bounds    x[76]
 BV bounds    x[77]
 BV bounds    x[78]
 BV bounds    x[79]
 BV bounds    x[80]
 BV bounds    x[81]
 BV bounds    x[82]
 BV bounds    x[83]
 BV bounds    x[84]
 BV bounds    x[85]
 BV bounds    x[86]
 BV bounds    x[87]
 BV bounds    x[88]
 BV bounds    x[89]
 BV bounds    x[90]
 BV bounds    x[91]
 BV bounds    x[92]
 BV bounds    x[93]
 BV bounds    x[94]
 BV bounds    x[95]
 BV bounds    x[96]
 BV bounds    x[97]
 BV bounds    x[98]
 BV bounds    x[99]
 BV bounds    x[100]
ENDATA
